3 15
295 467 241 
0 30 80 15 98 91 17 7 56 1 6 77 53 3
1 55 88 63 23 80 65 74 83 44 26 23 20 2
2 80 54 81 25 89 3 24 37 88 67 30 62 1
3 68 3 53 50 29 4 31 99 63 70 38 92 2
4 30 24 98 75 75 17 42 40 18 4 31 55 3
5 73 34 82 80 90 35 54 69 9 23 47 92 2
6 66 5 14 32 63 66 59 63 24 68 77 71 2
7 56 48 96 86 29 25 28 47 85 52 11 13 3
8 63 21 15 96 68 62 53 55 66 89 74 76 2
9 51 14 11 69 80 23 47 77 58 12 1 83 2
10 63 96 56 42 40 81 56 41 65 65 40 18 2
11 27 31 92 42 64 52 49 43 4 65 47 43 2
12 7 16 68 59 28 9 47 55 7 50 82 5 3
13 2 36 43 83 83 21 31 51 19 89 45 53 1
14 31 41 4 75 76 2 47 36 52 18 46 96 1
